45
1 0 11
2 0 19
2 1 16
3 0 5
3 1 10
3 2 2
4 0 23
4 1 10
4 2 16
4 3 15
5 0 11
5 1 3
5 2 14
5 3 13
5 4 16
6 0 19
6 1 22
6 2 5
6 3 15
6 4 16
6 5 12
7 0 10
7 1 21
7 2 19
7 3 12
7 4 2
7 5 11
7 6 9
8 0 24
8 1 8
8 2 7
8 3 21
8 4 16
8 5 2
8 6 8
8 7 5
9 0 6
9 1 2
9 2 9
9 3 17
9 4 3
9 5 22
9 6 7
9 7 19
9 8 12
10 0 22
10 1 10
10 2 3
10 3 7
10 4 9
10 5 20
10 6 13
10 7 10
10 8 21
10 9 2
11 0 3
11 1 9
11 2 18
11 3 2
11 4 17
11 5 17
11 6 10
11 7 21
11 8 17
11 9 10
11 10 20
12 0 20
12 1 16
12 2 19
12 3 21
12 4 2
12 5 6
12 6 20
12 7 5
12 8 17
12 9 24
12 10 16
12 11 15
13 0 19
13 1 19
13 2 8
13 3 2
13 4 20
13 5 20
13 6 14
13 7 19
13 8 6
13 9 3
13 10 7
13 11 8
13 12 3
14 0 1
14 1 6
14 2 19
14 3 6
14 4 18
14 5 24
14 6 4
14 7 24
14 8 17
14 9 17
14 10 7
14 11 1
14 12 10
14 13 24
15 0 24
15 1 11
15 2 5
15 3 18
15 4 23
15 5 3
15 6 12
15 7 2
15 8 1
15 9 21
15 10 21
15 11 18
15 12 24
15 13 14
15 14 10
16 0 24
16 1 22
16 2 21
16 3 7
16 4 15
16 5 3
16 6 9
16 7 8
16 8 10
16 9 21
16 10 1
16 11 16
16 12 17
16 13 6
16 14 23
16 15 8
17 0 10
17 1 12
17 2 24
17 3 11
17 4 19
17 5 23
17 6 6
17 7 12
17 8 20
17 9 19
17 10 23
17 11 20
17 12 9
17 13 14
17 14 16
17 15 19
17 16 14
18 0 9
18 1 13
18 2 6
18 3 21
18 4 18
18 5 4
18 6 19
18 7 21
18 8 16
18 9 8
18 10 2
18 11 21
18 12 22
18 13 7
18 14 18
18 15 22
18 16 20
18 17 1
19 0 3
19 1 19
19 2 8
19 3 8
19 4 10
19 5 24
19 6 15
19 7 11
19 8 9
19 9 6
19 10 18
19 11 18
19 12 9
19 13 2
19 14 13
19 15 21
19 16 18
19 17 18
19 18 17
20 0 2
20 1 9
20 2 5
20 3 2
20 4 22
20 5 18
20 6 13
20 7 16
20 8 10
20 9 9
20 10 22
20 11 20
20 12 22
20 13 5
20 14 5
20 15 13
20 16 3
20 17 12
20 18 11
20 19 19
21 0 15
21 1 4
21 2 22
21 3 2
21 4 14
21 5 13
21 6 20
21 7 22
21 8 14
21 9 17
21 10 7
21 11 22
21 12 8
21 13 11
21 14 17
21 15 12
21 16 22
21 17 19
21 18 10
21 19 4
21 20 8
22 0 13
22 1 2
22 2 10
22 3 8
22 4 5
22 5 9
22 6 18
22 7 13
22 8 11
22 9 2
22 10 9
22 11 3
22 12 12
22 13 9
22 14 7
22 15 14
22 16 23
22 17 2
22 18 3
22 19 24
22 20 24
22 21 2
23 0 22
23 1 18
23 2 12
23 3 7
23 4 6
23 5 3
23 6 15
23 7 12
23 8 8
23 9 5
23 10 12
23 11 17
23 12 7
23 13 20
23 14 7
23 15 5
23 16 24
23 17 9
23 18 16
23 19 7
23 20 11
23 21 13
23 22 17
24 0 8
24 1 13
24 2 16
24 3 16
24 4 12
24 5 15
24 6 11
24 7 16
24 8 4
24 9 3
24 10 3
24 11 23
24 12 6
24 13 15
24 14 14
24 15 1
24 16 8
24 17 11
24 18 18
24 19 8
24 20 8
24 21 3
24 22 6
24 23 3
25 0 14
25 1 4
25 2 15
25 3 1
25 4 17
25 5 1
25 6 22
25 7 20
25 8 1
25 9 6
25 10 14
25 11 1
25 12 20
25 13 19
25 14 21
25 15 21
25 16 6
25 17 22
25 18 19
25 19 13
25 20 20
25 21 20
25 22 24
25 23 4
25 24 16
26 0 4
26 1 21
26 2 24
26 3 3
26 4 16
26 5 6
26 6 2
26 7 24
26 8 23
26 9 2
26 10 6
26 11 10
26 12 2
26 13 8
26 14 20
26 15 16
26 16 6
26 17 14
26 18 21
26 19 7
26 20 3
26 21 9
26 22 23
26 23 9
26 24 9
26 25 5
27 0 1
27 1 13
27 2 4
27 3 10
27 4 15
27 5 23
27 6 10
27 7 8
27 8 10
27 9 16
27 10 14
27 11 22
27 12 5
27 13 24
27 14 23
27 15 22
27 16 14
27 17 20
27 18 15
27 19 10
27 20 17
27 21 20
27 22 17
27 23 20
27 24 11
27 25 1
27 26 3
28 0 17
28 1 10
28 2 13
28 3 14
28 4 9
28 5 12
28 6 22
28 7 22
28 8 16
28 9 10
28 10 22
28 11 17
28 12 23
28 13 10
28 14 6
28 15 15
28 16 9
28 17 5
28 18 18
28 19 18
28 20 5
28 21 23
28 22 23
28 23 18
28 24 19
28 25 7
28 26 5
28 27 8
29 0 3
29 1 12
29 2 23
29 3 6
29 4 19
29 5 24
29 6 24
29 7 14
29 8 11
29 9 3
29 10 19
29 11 11
29 12 20
29 13 2
29 14 23
29 15 21
29 16 10
29 17 19
29 18 14
29 19 16
29 20 2
29 21 14
29 22 15
29 23 20
29 24 8
29 25 4
29 26 24
29 27 16
29 28 18
30 0 12
30 1 23
30 2 5
30 3 4
30 4 4
30 5 21
30 6 4
30 7 9
30 8 16
30 9 24
30 10 9
30 11 8
30 12 10
30 13 5
30 14 7
30 15 24
30 16 15
30 17 20
30 18 8
30 19 16
30 20 12
30 21 5
30 22 14
30 23 13
30 24 15
30 25 14
30 26 16
30 27 17
30 28 17
30 29 23
31 0 15
31 1 17
31 2 6
31 3 6
31 4 24
31 5 7
31 6 6
31 7 10
31 8 16
31 9 8
31 10 17
31 11 5
31 12 22
31 13 1
31 14 4
31 15 13
31 16 23
31 17 14
31 18 16
31 19 5
31 20 22
31 21 12
31 22 7
31 23 24
31 24 13
31 25 18
31 26 8
31 27 21
31 28 19
31 29 5
31 30 23
32 0 3
32 1 2
32 2 15
32 3 12
32 4 24
32 5 20
32 6 21
32 7 24
32 8 6
32 9 15
32 10 11
32 11 16
32 12 8
32 13 6
32 14 9
32 15 12
32 16 7
32 17 8
32 18 20
32 19 6
32 20 1
32 21 1
32 22 3
32 23 6
32 24 21
32 25 17
32 26 19
32 27 14
32 28 11
32 29 19
32 30 14
32 31 23
33 0 14
33 1 16
33 2 20
33 3 8
33 4 4
33 5 9
33 6 24
33 7 8
33 8 19
33 9 4
33 10 18
33 11 13
33 12 12
33 13 12
33 14 8
33 15 20
33 16 13
33 17 6
33 18 14
33 19 4
33 20 3
33 21 18
33 22 15
33 23 10
33 24 3
33 25 15
33 26 9
33 27 4
33 28 16
33 29 6
33 30 7
33 31 20
33 32 18
34 0 4
34 1 7
34 2 22
34 3 8
34 4 23
34 5 21
34 6 19
34 7 15
34 8 15
34 9 4
34 10 15
34 11 23
34 12 21
34 13 18
34 14 1
34 15 10
34 16 1
34 17 14
34 18 20
34 19 18
34 20 15
34 21 10
34 22 1
34 23 2
34 24 23
34 25 6
34 26 17
34 27 12
34 28 23
34 29 18
34 30 10
34 31 22
34 32 16
34 33 3
35 0 14
35 1 8
35 2 12
35 3 10
35 4 13
35 5 4
35 6 14
35 7 24
35 8 15
35 9 12
35 10 16
35 11 19
35 12 9
35 13 19
35 14 2
35 15 3
35 16 6
35 17 5
35 18 22
35 19 1
35 20 11
35 21 14
35 22 15
35 23 20
35 24 17
35 25 8
35 26 20
35 27 22
35 28 15
35 29 20
35 30 13
35 31 10
35 32 21
35 33 17
35 34 13
36 0 18
36 1 11
36 2 3
36 3 22
36 4 11
36 5 17
36 6 1
36 7 9
36 8 13
36 9 12
36 10 15
36 11 4
36 12 13
36 13 4
36 14 5
36 15 13
36 16 9
36 17 7
36 18 13
36 19 24
36 20 20
36 21 19
36 22 13
36 23 22
36 24 1
36 25 5
36 26 3
36 27 11
36 28 11
36 29 12
36 30 7
36 31 10
36 32 18
36 33 3
36 34 24
36 35 17
37 0 5
37 1 13
37 2 2
37 3 17
37 4 8
37 5 14
37 6 15
37 7 9
37 8 19
37 9 2
37 10 11
37 11 2
37 12 9
37 13 9
37 14 10
37 15 14
37 16 12
37 17 9
37 18 17
37 19 14
37 20 21
37 21 24
37 22 21
37 23 9
37 24 9
37 25 11
37 26 15
37 27 1
37 28 14
37 29 20
37 30 14
37 31 15
37 32 20
37 33 5
37 34 8
37 35 14
37 36 13
38 0 9
38 1 16
38 2 2
38 3 21
38 4 5
38 5 7
38 6 22
38 7 15
38 8 19
38 9 19
38 10 9
38 11 10
38 12 1
38 13 13
38 14 8
38 15 9
38 16 19
38 17 7
38 18 16
38 19 18
38 20 24
38 21 15
38 22 4
38 23 7
38 24 17
38 25 15
38 26 10
38 27 14
38 28 10
38 29 5
38 30 3
38 31 23
38 32 1
38 33 13
38 34 3
38 35 11
38 36 15
38 37 2
39 0 3
39 1 17
39 2 23
39 3 23
39 4 17
39 5 24
39 6 9
39 7 24
39 8 22
39 9 8
39 10 12
39 11 23
39 12 2
39 13 24
39 14 16
39 15 1
39 16 7
39 17 5
39 18 17
39 19 7
39 20 12
39 21 13
39 22 9
39 23 8
39 24 19
39 25 7
39 26 9
39 27 4
39 28 17
39 29 10
39 30 4
39 31 20
39 32 16
39 33 19
39 34 13
39 35 8
39 36 9
39 37 21
39 38 24
40 0 7
40 1 13
40 2 16
40 3 1
40 4 15
40 5 21
40 6 24
40 7 10
40 8 24
40 9 17
40 10 13
40 11 14
40 12 17
40 13 14
40 14 14
40 15 23
40 16 3
40 17 10
40 18 21
40 19 18
40 20 10
40 21 13
40 22 7
40 23 12
40 24 17
40 25 5
40 26 8
40 27 16
40 28 2
40 29 13
40 30 13
40 31 16
40 32 22
40 33 13
40 34 2
40 35 12
40 36 13
40 37 15
40 38 15
40 39 11
41 0 13
41 1 14
41 2 22
41 3 24
41 4 10
41 5 20
41 6 12
41 7 15
41 8 7
41 9 1
41 10 1
41 11 6
41 12 9
41 13 18
41 14 20
41 15 6
41 16 11
41 17 8
41 18 7
41 19 18
41 20 13
41 21 24
41 22 21
41 23 9
41 24 14
41 25 19
41 26 16
41 27 4
41 28 5
41 29 13
41 30 5
41 31 12
41 32 3
41 33 22
41 34 23
41 35 11
41 36 23
41 37 1
41 38 20
41 39 12
41 40 7
42 0 5
42 1 16
42 2 12
42 3 6
42 4 24
42 5 16
42 6 23
42 7 4
42 8 14
42 9 23
42 10 18
42 11 21
42 12 22
42 13 15
42 14 3
42 15 13
42 16 12
42 17 7
42 18 8
42 19 17
42 20 6
42 21 5
42 22 16
42 23 5
42 24 17
42 25 17
42 26 12
42 27 12
42 28 10
42 29 5
42 30 10
42 31 1
42 32 20
42 33 17
42 34 21
42 35 10
42 36 12
42 37 15
42 38 1
42 39 14
42 40 7
42 41 8
43 0 23
43 1 14
43 2 3
43 3 24
43 4 7
43 5 4
43 6 5
43 7 6
43 8 17
43 9 7
43 10 1
43 11 12
43 12 13
43 13 18
43 14 19
43 15 5
43 16 13
43 17 6
43 18 19
43 19 1
43 20 20
43 21 7
43 22 6
43 23 22
43 24 13
43 25 9
43 26 23
43 27 9
43 28 23
43 29 17
43 30 21
43 31 17
43 32 6
43 33 23
43 34 22
43 35 5
43 36 9
43 37 11
43 38 3
43 39 16
43 40 3
43 41 23
43 42 16
44 0 4
44 1 3
44 2 18
44 3 23
44 4 3
44 5 24
44 6 22
44 7 13
44 8 22
44 9 3
44 10 5
44 11 6
44 12 2
44 13 9
44 14 1
44 15 20
44 16 23
44 17 5
44 18 10
44 19 13
44 20 2
44 21 21
44 22 15
44 23 7
44 24 21
44 25 4
44 26 17
44 27 18
44 28 3
44 29 17
44 30 23
44 31 15
44 32 21
44 33 1
44 34 18
44 35 2
44 36 1
44 37 11
44 38 13
44 39 17
44 40 5
44 41 9
44 42 23
44 43 6
